NAME          
ROWS
 N  OBJ
 L  c1
 L  c2
 L  c3
 L  c4
COLUMNS
    MARKER    'MARKER'                 'INTORG'
    x[1]      c1        323
    x[1]      c2        849
    x[1]      c3        314
    x[1]      c4        284
    x[1]      OBJ       -81
    x[2]      c1        570
    x[2]      c2        248
    x[2]      c3        908
    x[2]      c4        940
    x[2]      OBJ       -627
    x[3]      c1        299
    x[3]      c2        631
    x[3]      c3        189
    x[3]      c4        357
    x[3]      OBJ       -774
    x[4]      c1        510
    x[4]      c2        17
    x[4]      c3        325
    x[4]      c4        430
    x[4]      OBJ       -311
    x[5]      c1        32
    x[5]      c2        367
    x[5]      c3        408
    x[5]      c4        624
    x[5]      OBJ       -546
    x[6]      c1        287
    x[6]      c2        96
    x[6]      c3        431
    x[6]      c4        73
    x[6]      OBJ       -428
    x[7]      c1        846
    x[7]      c2        622
    x[7]      c3        26
    x[7]      c4        433
    x[7]      OBJ       -266
    x[8]      c1        392
    x[8]      c2        354
    x[8]      c3        255
    x[8]      c4        999
    x[8]      OBJ       -139
    x[9]      c1        232
    x[9]      c2        351
    x[9]      c3        319
    x[9]      c4        284
    x[9]      OBJ       -223
    x[10]     c1        510
    x[10]     c2        387
    x[10]     c3        513
    x[10]     c4        926
    x[10]     OBJ       -524
    x[11]     c1        574
    x[11]     c2        484
    x[11]     c3        280
    x[11]     c4        446
    x[11]     OBJ       -26
    x[12]     c1        65
    x[12]     c2        874
    x[12]     c3        923
    x[12]     c4        3
    x[12]     OBJ       -406
    x[13]     c1        914
    x[13]     c2        273
    x[13]     c3        488
    x[13]     c4        238
    x[13]     OBJ       -596
    x[14]     c1        813
    x[14]     c2        990
    x[14]     c3        936
    x[14]     c4        406
    x[14]     OBJ       -55
    x[15]     c1        302
    x[15]     c2        728
    x[15]     c3        275
    x[15]     c4        63
    x[15]     OBJ       -142
RHS
    rhs       c1        3334
    rhs       c2        3636
    rhs       c3        3295
    rhs       c4        3253
RANGES
BOUNDS
 BV bounds    x[1]
 BV bounds    x[2]
 BV bounds    x[3]
 BV bounds    x[4]
 BV bounds    x[5]
 BV bounds    x[6]
 BV bounds    x[7]
 BV bounds    x[8]
 BV bounds    x[9]
 BV bounds    x[10]
 BV bounds    x[11]
 BV bounds    x[12]
 BV bounds    x[13]
 BV bounds    x[14]
 BV bounds    x[15]
ENDATA
